output_file = "9-1-B-100-2.00-83.csv";

n_days = 100;
n_shelves = 9;
n_crops = 1;

crop_shelf_compatible = [
    [1, 1, 1, 1, 1, 1, 1, 1, 1]
];

crop_growth_days = [15];

n_configurations = 2;

crop_growth_day_config = [
    [1, 1, 1, 2, 2, 2, 2, 2, 2, 2, 2, 2, 2, 2, 2]
];

capacity = [
    [12, 12],
[12, 12],
[12, 12],
[12, 12],
[12, 12],
[12, 12],
[12, 12],
[12, 12],
[12, 12]
];

demand = [
    [0, 0, 0, 0, 0, 0, 0, 0, 0, 0, 0, 0, 0, 0, 0, 0, 0, 0, 10, 0, 0, 12, 0, 0, 14, 0, 0, 0, 0, 0, 0, 0, 14, 0, 0, 0, 10, 10, 22, 0, 22, 0, 0, 12, 0, 0, 0, 0, 0, 10, 0, 0, 0, 0, 0, 0, 0, 12, 0, 0, 0, 22, 0, 0, 0, 0, 0, 0, 0, 0, 0, 10, 0, 0, 0, 8, 0, 0, 0, 0, 0, 20, 0, 0, 4, 0, 12, 0, 0, 0, 0, 10, 0, 0, 12, 0, 0, 0, 0, 0]
];
